predicate fzn_all_different_int(array [int] of var int: x);
predicate array_int_element_offset(var int: idx,array [int] of var int: x,var int: c,int: offset);
array [1..10] of int: X_INTRODUCED_28_ = [1,0,0,0,0,0,1,1,1,1];
array [1..2] of int: X_INTRODUCED_32_ = [1,1];
array [1..10] of int: X_INTRODUCED_49_ = [0,0,1,1,1,1,0,0,1,1];
array [1..3] of int: X_INTRODUCED_54_ = [1,1,1];
array [1..10] of int: X_INTRODUCED_69_ = [1,0,0,0,0,0,1,1,0,0];
array [1..10] of int: X_INTRODUCED_88_ = [1,1,0,0,1,1,0,0,0,0];
array [1..5] of int: X_INTRODUCED_95_ = [1,1,1,1,1];
array [1..10] of int: X_INTRODUCED_106_ = [0,0,1,1,0,0,0,0,0,0];
var 1..10: X_INTRODUCED_18_;
var 1..10: X_INTRODUCED_19_;
var 1..10: X_INTRODUCED_20_;
var 1..10: X_INTRODUCED_21_;
var 1..10: X_INTRODUCED_22_;
var 1..10: X_INTRODUCED_23_;
var 1..10: X_INTRODUCED_24_;
var 1..10: X_INTRODUCED_25_;
var 1..10: X_INTRODUCED_26_;
var 1..10: X_INTRODUCED_27_;
var 0..1: X_INTRODUCED_29_ ::var_is_introduced :: is_defined_var;
var 0..1: X_INTRODUCED_30_ ::var_is_introduced :: is_defined_var;
var 0..1: X_INTRODUCED_33_ ::var_is_introduced :: is_defined_var;
var 0..1: X_INTRODUCED_35_ ::var_is_introduced :: is_defined_var;
var 0..1: X_INTRODUCED_37_ ::var_is_introduced :: is_defined_var;
var 0..1: X_INTRODUCED_39_ ::var_is_introduced :: is_defined_var;
var 0..1: X_INTRODUCED_41_ ::var_is_introduced :: is_defined_var;
var 0..1: X_INTRODUCED_43_ ::var_is_introduced :: is_defined_var;
var 0..1: X_INTRODUCED_45_ ::var_is_introduced :: is_defined_var;
var 0..1: X_INTRODUCED_47_ ::var_is_introduced :: is_defined_var;
var 0..1: X_INTRODUCED_50_ ::var_is_introduced :: is_defined_var;
var 0..1: X_INTRODUCED_51_ ::var_is_introduced :: is_defined_var;
var 0..1: X_INTRODUCED_52_ ::var_is_introduced :: is_defined_var;
var 0..1: X_INTRODUCED_55_ ::var_is_introduced :: is_defined_var;
var 0..1: X_INTRODUCED_57_ ::var_is_introduced :: is_defined_var;
var 0..1: X_INTRODUCED_59_ ::var_is_introduced :: is_defined_var;
var 0..1: X_INTRODUCED_61_ ::var_is_introduced :: is_defined_var;
var 0..1: X_INTRODUCED_63_ ::var_is_introduced :: is_defined_var;
var 0..1: X_INTRODUCED_65_ ::var_is_introduced :: is_defined_var;
var 0..1: X_INTRODUCED_67_ ::var_is_introduced :: is_defined_var;
var 0..1: X_INTRODUCED_70_ ::var_is_introduced :: is_defined_var;
var 0..1: X_INTRODUCED_71_ ::var_is_introduced :: is_defined_var;
var 0..1: X_INTRODUCED_72_ ::var_is_introduced :: is_defined_var;
var 0..1: X_INTRODUCED_74_ ::var_is_introduced :: is_defined_var;
var 0..1: X_INTRODUCED_76_ ::var_is_introduced :: is_defined_var;
var 0..1: X_INTRODUCED_78_ ::var_is_introduced :: is_defined_var;
var 0..1: X_INTRODUCED_80_ ::var_is_introduced :: is_defined_var;
var 0..1: X_INTRODUCED_82_ ::var_is_introduced :: is_defined_var;
var 0..1: X_INTRODUCED_84_ ::var_is_introduced :: is_defined_var;
var 0..1: X_INTRODUCED_86_ ::var_is_introduced :: is_defined_var;
var 0..1: X_INTRODUCED_89_ ::var_is_introduced :: is_defined_var;
var 0..1: X_INTRODUCED_90_ ::var_is_introduced :: is_defined_var;
var 0..1: X_INTRODUCED_91_ ::var_is_introduced :: is_defined_var;
var 0..1: X_INTRODUCED_92_ ::var_is_introduced :: is_defined_var;
var 0..1: X_INTRODUCED_93_ ::var_is_introduced :: is_defined_var;
var 0..1: X_INTRODUCED_96_ ::var_is_introduced :: is_defined_var;
var 0..1: X_INTRODUCED_98_ ::var_is_introduced :: is_defined_var;
var 0..1: X_INTRODUCED_100_ ::var_is_introduced :: is_defined_var;
var 0..1: X_INTRODUCED_102_ ::var_is_introduced :: is_defined_var;
var 0..1: X_INTRODUCED_104_ ::var_is_introduced :: is_defined_var;
var 0..1: X_INTRODUCED_107_ ::var_is_introduced :: is_defined_var;
var 0..1: X_INTRODUCED_108_ ::var_is_introduced :: is_defined_var;
var 0..1: X_INTRODUCED_109_ ::var_is_introduced :: is_defined_var;
var 0..1: X_INTRODUCED_110_ ::var_is_introduced :: is_defined_var;
var 0..1: X_INTRODUCED_111_ ::var_is_introduced :: is_defined_var;
var 0..1: X_INTRODUCED_113_ ::var_is_introduced :: is_defined_var;
var 0..1: X_INTRODUCED_115_ ::var_is_introduced :: is_defined_var;
var 0..1: X_INTRODUCED_117_ ::var_is_introduced :: is_defined_var;
var 0..1: X_INTRODUCED_119_ ::var_is_introduced :: is_defined_var;
var 0..1: X_INTRODUCED_121_ ::var_is_introduced :: is_defined_var;
array [1..10] of var int: Sequence:: output_array([1..10]) = [X_INTRODUCED_18_,X_INTRODUCED_19_,X_INTRODUCED_20_,X_INTRODUCED_21_,X_INTRODUCED_22_,X_INTRODUCED_23_,X_INTRODUCED_24_,X_INTRODUCED_25_,X_INTRODUCED_26_,X_INTRODUCED_27_];
constraint fzn_all_different_int(Sequence);
constraint array_int_element_offset(X_INTRODUCED_18_,X_INTRODUCED_28_,X_INTRODUCED_29_,1);
constraint array_int_element_offset(X_INTRODUCED_19_,X_INTRODUCED_28_,X_INTRODUCED_30_,1);
constraint int_lin_le(X_INTRODUCED_32_,[X_INTRODUCED_29_,X_INTRODUCED_30_],1);
constraint array_int_element_offset(X_INTRODUCED_20_,X_INTRODUCED_28_,X_INTRODUCED_33_,1);
constraint int_lin_le(X_INTRODUCED_32_,[X_INTRODUCED_30_,X_INTRODUCED_33_],1);
constraint array_int_element_offset(X_INTRODUCED_21_,X_INTRODUCED_28_,X_INTRODUCED_35_,1);
constraint int_lin_le(X_INTRODUCED_32_,[X_INTRODUCED_33_,X_INTRODUCED_35_],1);
constraint array_int_element_offset(X_INTRODUCED_22_,X_INTRODUCED_28_,X_INTRODUCED_37_,1);
constraint int_lin_le(X_INTRODUCED_32_,[X_INTRODUCED_35_,X_INTRODUCED_37_],1);
constraint array_int_element_offset(X_INTRODUCED_23_,X_INTRODUCED_28_,X_INTRODUCED_39_,1);
constraint int_lin_le(X_INTRODUCED_32_,[X_INTRODUCED_37_,X_INTRODUCED_39_],1);
constraint array_int_element_offset(X_INTRODUCED_24_,X_INTRODUCED_28_,X_INTRODUCED_41_,1);
constraint int_lin_le(X_INTRODUCED_32_,[X_INTRODUCED_39_,X_INTRODUCED_41_],1);
constraint array_int_element_offset(X_INTRODUCED_25_,X_INTRODUCED_28_,X_INTRODUCED_43_,1);
constraint int_lin_le(X_INTRODUCED_32_,[X_INTRODUCED_41_,X_INTRODUCED_43_],1);
constraint array_int_element_offset(X_INTRODUCED_26_,X_INTRODUCED_28_,X_INTRODUCED_45_,1);
constraint int_lin_le(X_INTRODUCED_32_,[X_INTRODUCED_43_,X_INTRODUCED_45_],1);
constraint array_int_element_offset(X_INTRODUCED_27_,X_INTRODUCED_28_,X_INTRODUCED_47_,1);
constraint int_lin_le(X_INTRODUCED_32_,[X_INTRODUCED_45_,X_INTRODUCED_47_],1);
constraint array_int_element_offset(X_INTRODUCED_18_,X_INTRODUCED_49_,X_INTRODUCED_50_,1);
constraint array_int_element_offset(X_INTRODUCED_19_,X_INTRODUCED_49_,X_INTRODUCED_51_,1);
constraint array_int_element_offset(X_INTRODUCED_20_,X_INTRODUCED_49_,X_INTRODUCED_52_,1);
constraint int_lin_le(X_INTRODUCED_54_,[X_INTRODUCED_50_,X_INTRODUCED_51_,X_INTRODUCED_52_],2);
constraint array_int_element_offset(X_INTRODUCED_21_,X_INTRODUCED_49_,X_INTRODUCED_55_,1);
constraint int_lin_le(X_INTRODUCED_54_,[X_INTRODUCED_51_,X_INTRODUCED_52_,X_INTRODUCED_55_],2);
constraint array_int_element_offset(X_INTRODUCED_22_,X_INTRODUCED_49_,X_INTRODUCED_57_,1);
constraint int_lin_le(X_INTRODUCED_54_,[X_INTRODUCED_52_,X_INTRODUCED_55_,X_INTRODUCED_57_],2);
constraint array_int_element_offset(X_INTRODUCED_23_,X_INTRODUCED_49_,X_INTRODUCED_59_,1);
constraint int_lin_le(X_INTRODUCED_54_,[X_INTRODUCED_55_,X_INTRODUCED_57_,X_INTRODUCED_59_],2);
constraint array_int_element_offset(X_INTRODUCED_24_,X_INTRODUCED_49_,X_INTRODUCED_61_,1);
constraint int_lin_le(X_INTRODUCED_54_,[X_INTRODUCED_57_,X_INTRODUCED_59_,X_INTRODUCED_61_],2);
constraint array_int_element_offset(X_INTRODUCED_25_,X_INTRODUCED_49_,X_INTRODUCED_63_,1);
constraint int_lin_le(X_INTRODUCED_54_,[X_INTRODUCED_59_,X_INTRODUCED_61_,X_INTRODUCED_63_],2);
constraint array_int_element_offset(X_INTRODUCED_26_,X_INTRODUCED_49_,X_INTRODUCED_65_,1);
constraint int_lin_le(X_INTRODUCED_54_,[X_INTRODUCED_61_,X_INTRODUCED_63_,X_INTRODUCED_65_],2);
constraint array_int_element_offset(X_INTRODUCED_27_,X_INTRODUCED_49_,X_INTRODUCED_67_,1);
constraint int_lin_le(X_INTRODUCED_54_,[X_INTRODUCED_63_,X_INTRODUCED_65_,X_INTRODUCED_67_],2);
constraint array_int_element_offset(X_INTRODUCED_18_,X_INTRODUCED_69_,X_INTRODUCED_70_,1);
constraint array_int_element_offset(X_INTRODUCED_19_,X_INTRODUCED_69_,X_INTRODUCED_71_,1);
constraint array_int_element_offset(X_INTRODUCED_20_,X_INTRODUCED_69_,X_INTRODUCED_72_,1);
constraint int_lin_le(X_INTRODUCED_54_,[X_INTRODUCED_70_,X_INTRODUCED_71_,X_INTRODUCED_72_],1);
constraint array_int_element_offset(X_INTRODUCED_21_,X_INTRODUCED_69_,X_INTRODUCED_74_,1);
constraint int_lin_le(X_INTRODUCED_54_,[X_INTRODUCED_71_,X_INTRODUCED_72_,X_INTRODUCED_74_],1);
constraint array_int_element_offset(X_INTRODUCED_22_,X_INTRODUCED_69_,X_INTRODUCED_76_,1);
constraint int_lin_le(X_INTRODUCED_54_,[X_INTRODUCED_72_,X_INTRODUCED_74_,X_INTRODUCED_76_],1);
constraint array_int_element_offset(X_INTRODUCED_23_,X_INTRODUCED_69_,X_INTRODUCED_78_,1);
constraint int_lin_le(X_INTRODUCED_54_,[X_INTRODUCED_74_,X_INTRODUCED_76_,X_INTRODUCED_78_],1);
constraint array_int_element_offset(X_INTRODUCED_24_,X_INTRODUCED_69_,X_INTRODUCED_80_,1);
constraint int_lin_le(X_INTRODUCED_54_,[X_INTRODUCED_76_,X_INTRODUCED_78_,X_INTRODUCED_80_],1);
constraint array_int_element_offset(X_INTRODUCED_25_,X_INTRODUCED_69_,X_INTRODUCED_82_,1);
constraint int_lin_le(X_INTRODUCED_54_,[X_INTRODUCED_78_,X_INTRODUCED_80_,X_INTRODUCED_82_],1);
constraint array_int_element_offset(X_INTRODUCED_26_,X_INTRODUCED_69_,X_INTRODUCED_84_,1);
constraint int_lin_le(X_INTRODUCED_54_,[X_INTRODUCED_80_,X_INTRODUCED_82_,X_INTRODUCED_84_],1);
constraint array_int_element_offset(X_INTRODUCED_27_,X_INTRODUCED_69_,X_INTRODUCED_86_,1);
constraint int_lin_le(X_INTRODUCED_54_,[X_INTRODUCED_82_,X_INTRODUCED_84_,X_INTRODUCED_86_],1);
constraint array_int_element_offset(X_INTRODUCED_18_,X_INTRODUCED_88_,X_INTRODUCED_89_,1);
constraint array_int_element_offset(X_INTRODUCED_19_,X_INTRODUCED_88_,X_INTRODUCED_90_,1);
constraint array_int_element_offset(X_INTRODUCED_20_,X_INTRODUCED_88_,X_INTRODUCED_91_,1);
constraint array_int_element_offset(X_INTRODUCED_21_,X_INTRODUCED_88_,X_INTRODUCED_92_,1);
constraint array_int_element_offset(X_INTRODUCED_22_,X_INTRODUCED_88_,X_INTRODUCED_93_,1);
constraint int_lin_le(X_INTRODUCED_95_,[X_INTRODUCED_89_,X_INTRODUCED_90_,X_INTRODUCED_91_,X_INTRODUCED_92_,X_INTRODUCED_93_],2);
constraint array_int_element_offset(X_INTRODUCED_23_,X_INTRODUCED_88_,X_INTRODUCED_96_,1);
constraint int_lin_le(X_INTRODUCED_95_,[X_INTRODUCED_90_,X_INTRODUCED_91_,X_INTRODUCED_92_,X_INTRODUCED_93_,X_INTRODUCED_96_],2);
constraint array_int_element_offset(X_INTRODUCED_24_,X_INTRODUCED_88_,X_INTRODUCED_98_,1);
constraint int_lin_le(X_INTRODUCED_95_,[X_INTRODUCED_91_,X_INTRODUCED_92_,X_INTRODUCED_93_,X_INTRODUCED_96_,X_INTRODUCED_98_],2);
constraint array_int_element_offset(X_INTRODUCED_25_,X_INTRODUCED_88_,X_INTRODUCED_100_,1);
constraint int_lin_le(X_INTRODUCED_95_,[X_INTRODUCED_92_,X_INTRODUCED_93_,X_INTRODUCED_96_,X_INTRODUCED_98_,X_INTRODUCED_100_],2);
constraint array_int_element_offset(X_INTRODUCED_26_,X_INTRODUCED_88_,X_INTRODUCED_102_,1);
constraint int_lin_le(X_INTRODUCED_95_,[X_INTRODUCED_93_,X_INTRODUCED_96_,X_INTRODUCED_98_,X_INTRODUCED_100_,X_INTRODUCED_102_],2);
constraint array_int_element_offset(X_INTRODUCED_27_,X_INTRODUCED_88_,X_INTRODUCED_104_,1);
constraint int_lin_le(X_INTRODUCED_95_,[X_INTRODUCED_96_,X_INTRODUCED_98_,X_INTRODUCED_100_,X_INTRODUCED_102_,X_INTRODUCED_104_],2);
constraint array_int_element_offset(X_INTRODUCED_18_,X_INTRODUCED_106_,X_INTRODUCED_107_,1);
constraint array_int_element_offset(X_INTRODUCED_19_,X_INTRODUCED_106_,X_INTRODUCED_108_,1);
constraint array_int_element_offset(X_INTRODUCED_20_,X_INTRODUCED_106_,X_INTRODUCED_109_,1);
constraint array_int_element_offset(X_INTRODUCED_21_,X_INTRODUCED_106_,X_INTRODUCED_110_,1);
constraint array_int_element_offset(X_INTRODUCED_22_,X_INTRODUCED_106_,X_INTRODUCED_111_,1);
constraint int_lin_le(X_INTRODUCED_95_,[X_INTRODUCED_107_,X_INTRODUCED_108_,X_INTRODUCED_109_,X_INTRODUCED_110_,X_INTRODUCED_111_],1);
constraint array_int_element_offset(X_INTRODUCED_23_,X_INTRODUCED_106_,X_INTRODUCED_113_,1);
constraint int_lin_le(X_INTRODUCED_95_,[X_INTRODUCED_108_,X_INTRODUCED_109_,X_INTRODUCED_110_,X_INTRODUCED_111_,X_INTRODUCED_113_],1);
constraint array_int_element_offset(X_INTRODUCED_24_,X_INTRODUCED_106_,X_INTRODUCED_115_,1);
constraint int_lin_le(X_INTRODUCED_95_,[X_INTRODUCED_109_,X_INTRODUCED_110_,X_INTRODUCED_111_,X_INTRODUCED_113_,X_INTRODUCED_115_],1);
constraint array_int_element_offset(X_INTRODUCED_25_,X_INTRODUCED_106_,X_INTRODUCED_117_,1);
constraint int_lin_le(X_INTRODUCED_95_,[X_INTRODUCED_110_,X_INTRODUCED_111_,X_INTRODUCED_113_,X_INTRODUCED_115_,X_INTRODUCED_117_],1);
constraint array_int_element_offset(X_INTRODUCED_26_,X_INTRODUCED_106_,X_INTRODUCED_119_,1);
constraint int_lin_le(X_INTRODUCED_95_,[X_INTRODUCED_111_,X_INTRODUCED_113_,X_INTRODUCED_115_,X_INTRODUCED_117_,X_INTRODUCED_119_],1);
constraint array_int_element_offset(X_INTRODUCED_27_,X_INTRODUCED_106_,X_INTRODUCED_121_,1);
constraint int_lin_le(X_INTRODUCED_95_,[X_INTRODUCED_113_,X_INTRODUCED_115_,X_INTRODUCED_117_,X_INTRODUCED_119_,X_INTRODUCED_121_],1);
solve  satisfy;
